c status 295 1469274320808
c status 29 1469274320813
s td 173 29 299
b 1 289 278 2 256 1
b 2 113 223 234 245 267 1
b 3 69 2 14 58 256 1
b 4 91 2 80 14 58 256 1
b 5 102 114 2 80 14 58 256 1
b 6 3 278 25 36 47 2 256 1
b 7 25 36 47 2 14 256 1
b 8 136 114 125 2 80 14 58 256 1
b 9 231 232 233 235 229 1 180 226 230
b 10 232 233 236 235 229 1 180 226 230
b 11 236 251 252 235 229 1 180 226 230
b 12 191 114 125 2 80 14 58 147 256 1
b 13 169 114 125 2 80 14 58 147 256 1
b 14 158 114 125 2 80 14 58 147 256 1
b 15 213 114 125 2 202 80 14 58 147 256 1
b 16 224 114 125 2 202 80 14 58 147 256 1
b 17 225 114 125 2 202 80 14 58 147 256 1
b 18 22 2 202 80 14 58 147 256 1 226 247 299
b 19 23 2 202 80 14 58 147 256 1 226 247 299
b 20 227 114 125 2 202 80 14 58 147 256 1 226
b 21 228 114 125 2 202 80 14 58 147 256 1 226
b 22 251 252 235 229 1 180 226 230 238 247 248 250
b 23 268 1 180 226 230 238 247 248 250 255 262 265
b 24 263 114 125 2 202 80 14 58 147 256 1 226 247
b 25 12 125 2 202 80 14 58 147 256 1 226 247 299
b 26 11 125 2 202 80 14 58 147 256 1 226 247 299
b 27 216 210 204 53 122 184 219 220 221 218 1 247 299
b 28 237 239 114 125 2 202 80 14 58 147 256 1 226
b 29 210 204 53 122 184 219 220 221 218 211 1 247 299
b 30 264 114 125 2 202 80 14 58 147 256 1 226 247
b 31 266 114 125 2 202 80 14 58 147 256 1 226 247
b 32 271 273 1 180 226 230 238 247 248 250 255 262 265
b 33 18 125 2 202 80 14 58 147 256 1 226 247 299
b 34 273 1 180 226 230 238 247 248 250 255 262 265 272
b 35 20 125 2 202 80 14 58 147 256 1 226 247 299
b 36 8 9 125 2 202 80 14 58 147 256 1 226 247 299
b 37 157 53 122 2 202 80 14 58 147 256 1 226 247 299
b 38 154 53 122 2 202 80 14 58 147 256 1 226 247 299
b 39 156 53 122 2 202 80 14 58 147 256 1 226 247 299
b 40 240 241 239 114 125 2 202 80 14 58 147 256 1 226
b 41 254 235 257 229 253 258 1 180 226 230 238 247 248 250
b 42 261 229 253 259 260 1 180 226 230 238 247 248 250 255
b 43 111 119 109 53 2 202 80 14 58 147 256 1 226 247 299
b 44 120 109 121 53 2 202 80 14 58 147 256 1 226 247 299
b 45 242 241 239 243 114 125 2 202 80 14 58 147 256 1 226
b 46 235 257 229 253 258 259 260 1 180 226 230 238 247 248 250
b 47 257 229 253 258 259 260 1 180 226 230 238 247 248 250 255
b 48 241 239 243 244 114 125 2 202 80 14 58 147 256 1 226
b 49 280 269 270 114 125 2 202 80 14 58 147 256 1 226 247
b 50 239 243 244 246 114 125 2 202 80 14 58 147 256 1 226
b 51 243 244 246 249 114 125 2 202 80 14 58 147 256 1 226
b 52 249 114 125 2 202 80 14 58 147 256 1 226 247
b 53 100 99 94 63 53 2 202 80 14 58 147 256 1 226 247 299
b 54 130 144 145 53 122 2 202 80 14 58 147 256 1 226 247 299
b 55 99 94 63 83 53 2 202 80 14 58 147 256 1 226 247 299
b 56 98 94 63 83 53 2 202 80 14 58 147 256 1 226 247 299
b 57 276 269 270 274 114 125 2 202 80 14 58 147 256 1 226 247
b 58 277 269 270 274 114 125 2 202 80 14 58 147 256 1 226 247
b 59 275 269 270 274 114 125 2 202 80 14 58 147 256 1 226 247
b 60 114 125 193 201 203 2 202 80 14 58 147 256 1 226 247
b 61 125 193 201 203 2 202 80 14 58 147 256 1 226 247 299
b 62 282 283 1 180 226 230 238 247 248 250 255 262 265 272 279 281
b 63 85 84 63 83 53 2 202 80 14 58 147 256 1 226 247 299
b 64 95 94 96 63 83 53 2 202 80 14 58 147 256 1 226 247 299
b 65 87 84 88 63 83 53 2 202 80 14 58 147 256 1 226 247 299
b 66 93 88 63 83 89 53 2 202 80 14 58 147 256 1 226 247 299
b 67 204 53 122 184 219 220 221 218 209 211 208 207 206 205 1 247 299
b 68 88 63 83 89 90 53 2 202 80 14 58 147 256 1 226 247 299
b 69 193 201 203 53 122 184 2 202 80 14 58 147 256 1 226 247 299
b 70 284 285 283 287 1 180 226 230 238 247 248 250 255 262 265 272 279 281
b 71 30 31 32 2 202 80 14 58 147 256 1 226 247 255 262 265 272 279 299
b 72 296 283 287 1 180 226 230 238 247 248 250 255 262 265 272 279 281 286 295
b 73 31 32 2 202 80 14 58 147 256 1 226 247 250 255 262 265 272 279 299
b 74 32 2 202 80 14 58 147 256 1 226 247 248 250 255 262 265 272 279 299
b 75 27 26 1 4 7 10 226 230 238 247 248 250 255 262 265 272 279 281 286 295
b 76 28 49 1 4 7 10 226 230 238 247 248 250 255 262 265 272 279 281 286 295
b 77 86 40 1 4 7 10 226 230 238 247 248 250 255 262 265 272 279 281 286 295
b 78 44 43 1 4 7 10 226 230 238 247 248 250 255 262 265 272 279 281 286 295
b 79 49 40 1 4 7 10 226 230 238 247 248 250 255 262 265 272 279 281 286 295
b 80 51 40 1 4 7 10 226 230 238 247 248 250 255 262 265 272 279 281 286 295
b 81 66 24 1 4 7 10 226 230 238 247 248 250 255 262 265 272 279 281 286 295
b 82 77 40 1 4 7 10 226 230 238 247 248 250 255 262 265 272 279 281 286 295
b 83 62 1 4 7 10 180 226 230 238 247 248 250 255 262 265 272 279 281 286 295 299
b 84 103 1 4 7 10 180 226 230 238 247 248 250 255 262 265 272 279 281 286 295 299
b 85 42 43 40 1 4 7 10 226 230 238 247 248 250 255 262 265 272 279 281 286 295
b 86 52 1 4 7 10 180 226 230 238 247 248 250 255 262 265 272 279 281 286 295 299
b 87 214 212 1 4 7 10 226 230 238 247 248 250 255 262 265 272 279 281 286 295 299
b 88 215 212 1 4 7 10 226 230 238 247 248 250 255 262 265 272 279 281 286 295 299
b 89 288 291 290 283 287 292 1 180 226 230 238 247 248 250 255 262 265 272 279 281 286
b 90 19 1 4 7 10 180 226 230 238 247 248 250 255 262 265 272 279 281 286 295 299
b 91 291 290 283 287 292 293 1 180 226 230 238 247 248 250 255 262 265 272 279 281 286
b 92 24 45 48 43 1 4 7 10 226 230 238 247 248 250 255 262 265 272 279 281 286 295
b 93 104 105 1 4 7 10 180 226 230 238 247 248 250 255 262 265 272 279 281 286 295 299
b 94 117 1 4 7 10 110 180 226 230 238 247 248 250 255 262 265 272 279 281 286 295 299
b 95 105 106 1 4 7 10 180 226 230 238 247 248 250 255 262 265 272 279 281 286 295 299
b 96 46 219 220 221 218 209 211 208 207 206 205 2 202 80 14 58 147 256 1 226 247 299
b 97 294 297 298 283 287 292 293 1 180 226 230 238 247 248 250 255 262 265 272 279 281 286
b 98 297 298 283 287 292 293 1 180 226 230 238 247 248 250 255 262 265 272 279 281 286 295
b 99 283 287 292 293 5 6 1 180 226 230 238 247 248 250 255 262 265 272 279 281 286 295
b 100 5 6 1 4 180 226 230 238 247 248 250 255 262 265 272 279 281 286 295 299
b 101 106 108 107 1 4 7 10 180 226 230 238 247 248 250 255 262 265 272 279 281 286 295 299
b 102 192 217 212 1 4 7 10 110 226 230 238 247 248 250 255 262 265 272 279 281 286 295 299
b 103 29 217 212 1 4 7 10 110 226 230 238 247 248 250 255 262 265 272 279 281 286 295 299
b 104 146 217 212 1 4 7 10 110 226 230 238 247 248 250 255 262 265 272 279 281 286 295 299
b 105 148 149 1 4 7 10 110 180 226 230 238 247 248 250 255 262 265 272 279 281 286 295 299
b 106 64 60 59 1 4 7 10 180 226 230 238 247 248 250 255 262 265 272 279 281 286 295 299
b 107 40 217 212 1 4 7 10 110 226 230 238 247 248 250 255 262 265 272 279 281 286 295 299
b 108 60 65 59 1 4 7 10 180 226 230 238 247 248 250 255 262 265 272 279 281 286 295 299
b 109 222 217 212 1 4 7 10 110 226 230 238 247 248 250 255 262 265 272 279 281 286 295 299
b 110 55 56 57 1 4 7 10 180 226 230 238 247 248 250 255 262 265 272 279 281 286 295 299
b 111 56 57 59 1 4 7 10 180 226 230 238 247 248 250 255 262 265 272 279 281 286 295 299
b 112 53 122 184 219 220 221 218 209 211 208 207 206 205 2 202 80 14 58 147 256 1 226 247 299
b 113 107 116 112 115 1 4 7 10 180 226 230 238 247 248 250 255 262 265 272 279 281 286 295 299
b 114 116 112 115 1 4 7 10 110 180 226 230 238 247 248 250 255 262 265 272 279 281 286 295 299
b 115 218 209 211 208 207 206 205 2 202 80 14 58 147 256 1 4 7 10 226 247 281 286 295 299
b 116 208 207 206 205 2 202 80 14 58 147 256 1 4 7 10 226 247 279 281 286 295 299
b 117 207 206 205 2 202 80 14 58 147 256 1 4 7 10 226 247 272 279 281 286 295 299
b 118 206 205 2 202 80 14 58 147 256 1 4 7 10 226 247 265 272 279 281 286 295 299
b 119 205 2 202 80 14 58 147 256 1 4 7 10 226 247 262 265 272 279 281 286 295 299
b 120 149 151 1 4 7 10 110 150 180 226 230 238 247 248 250 255 262 265 272 279 281 286 295 299
b 121 155 217 212 1 4 7 10 110 159 226 230 238 247 248 250 255 262 265 272 279 281 286 295 299
b 122 151 1 4 7 10 110 150 152 180 226 230 238 247 248 250 255 262 265 272 279 281 286 295 299
b 123 128 126 124 129 1 4 7 10 110 180 226 230 238 247 248 250 255 262 265 272 279 281 286 295 299
b 124 132 131 124 129 1 4 7 10 110 180 226 230 238 247 248 250 255 262 265 272 279 281 286 295 299
b 125 118 123 127 217 212 1 4 7 10 110 226 230 238 247 248 250 255 262 265 272 279 281 286 295 299
b 126 33 34 39 35 37 38 41 1 4 7 10 226 230 238 247 248 250 255 262 265 272 279 281 286 295
b 127 131 134 124 129 1 4 7 10 110 180 226 230 238 247 248 250 255 262 265 272 279 281 286 295 299
b 128 34 39 35 37 38 41 202 1 4 7 10 226 230 238 247 248 250 255 262 265 272 279 281 286 295
b 129 17 13 16 14 58 1 4 7 10 180 226 230 238 247 248 250 255 262 265 272 279 281 286 295 299
b 130 39 35 37 38 41 2 202 1 4 7 10 226 230 238 247 248 250 255 262 265 272 279 281 286 295
b 131 176 185 186 217 212 1 4 7 10 110 226 230 238 247 248 250 255 262 265 272 279 281 286 295 299
b 132 167 217 212 1 4 7 10 50 110 159 226 230 238 247 248 250 255 262 265 272 279 281 286 295 299
b 133 188 189 187 92 133 1 4 7 10 110 180 226 230 238 247 248 250 255 262 265 272 279 281 286 295 299
b 134 101 15 21 97 217 212 1 4 7 10 110 226 230 238 247 248 250 255 262 265 272 279 281 286 295 299
b 135 142 141 140 124 135 1 4 7 10 110 180 226 230 238 247 248 250 255 262 265 272 279 281 286 295 299
b 136 2 202 80 14 58 147 256 1 4 7 10 226 230 238 247 248 250 255 262 265 272 279 281 286 295 299
b 137 195 190 189 187 92 133 1 4 7 10 110 180 226 230 238 247 248 250 255 262 265 272 279 281 286 295 299
b 138 141 140 124 129 135 139 1 4 7 10 110 180 226 230 238 247 248 250 255 262 265 272 279 281 286 295 299
b 139 137 124 129 135 138 139 1 4 7 10 110 180 226 230 238 247 248 250 255 262 265 272 279 281 286 295 299
b 140 140 124 129 135 138 139 1 4 7 10 110 180 226 230 238 247 248 250 255 262 265 272 279 281 286 295 299
b 141 190 194 189 187 92 133 1 4 7 10 110 180 226 230 238 247 248 250 255 262 265 272 279 281 286 295 299
b 142 82 81 67 75 76 78 79 1 4 7 10 180 226 230 238 247 248 250 255 262 265 272 279 281 286 295 299
b 143 160 153 61 1 4 7 10 50 110 150 152 159 180 226 230 238 247 248 250 255 262 265 272 279 281 286 295 299
b 144 182 181 170 1 4 7 10 50 54 110 159 171 180 226 230 238 247 248 250 255 262 265 272 279 281 286 295 299
b 145 161 153 61 1 4 7 10 50 110 150 152 159 180 226 230 238 247 248 250 255 262 265 272 279 281 286 295 299
b 146 166 164 153 1 4 7 10 50 110 150 152 159 180 226 230 238 247 248 250 255 262 265 272 279 281 286 295 299
b 147 165 164 153 1 4 7 10 50 110 150 152 159 180 226 230 238 247 248 250 255 262 265 272 279 281 286 295 299
b 148 68 70 71 72 73 59 67 74 1 4 7 10 180 226 230 238 247 248 250 255 262 265 272 279 281 286 295 299
b 149 164 163 153 1 4 7 10 50 110 150 152 159 180 226 230 238 247 248 250 255 262 265 272 279 281 286 295 299
b 150 70 71 72 73 59 67 74 75 1 4 7 10 180 226 230 238 247 248 250 255 262 265 272 279 281 286 295 299
b 151 163 162 153 1 4 7 10 50 110 150 152 159 180 226 230 238 247 248 250 255 262 265 272 279 281 286 295 299
b 152 71 72 73 59 67 74 75 76 1 4 7 10 180 226 230 238 247 248 250 255 262 265 272 279 281 286 295 299
b 153 61 217 212 1 4 7 10 50 110 150 152 159 180 226 230 238 247 248 250 255 262 265 272 279 281 286 295 299
b 154 72 73 59 67 74 75 76 78 1 4 7 10 180 226 230 238 247 248 250 255 262 265 272 279 281 286 295 299
b 155 183 181 170 1 4 7 10 50 54 110 159 171 180 226 230 238 247 248 250 255 262 265 272 279 281 286 295 299
b 156 73 59 67 74 75 76 78 79 1 4 7 10 180 226 230 238 247 248 250 255 262 265 272 279 281 286 295 299
b 157 81 59 67 74 75 76 78 79 1 4 7 10 180 226 230 238 247 248 250 255 262 265 272 279 281 286 295 299
b 158 175 174 1 4 7 10 50 54 110 150 159 168 171 180 226 230 238 247 248 250 255 262 265 272 279 281 286 295 299
b 159 173 1 4 7 10 50 54 110 150 152 159 168 171 180 226 230 238 247 248 250 255 262 265 272 279 281 286 295 299
b 160 202 80 14 58 147 256 217 212 1 4 7 10 110 159 226 230 238 247 248 250 255 262 265 272 279 281 286 295 299
b 161 172 1 4 7 10 50 54 110 150 152 159 168 171 180 226 230 238 247 248 250 255 262 265 272 279 281 286 295 299
b 162 80 14 58 147 256 217 212 1 4 7 10 110 159 180 226 230 238 247 248 250 255 262 265 272 279 281 286 295 299
b 163 181 179 178 170 1 4 7 10 50 54 110 159 171 180 226 230 238 247 248 250 255 262 265 272 279 281 286 295 299
b 164 197 198 189 187 196 92 133 143 1 4 7 10 110 180 226 230 238 247 248 250 255 262 265 272 279 281 286 295 299
b 165 179 178 174 170 1 4 7 10 50 54 110 159 171 180 226 230 238 247 248 250 255 262 265 272 279 281 286 295 299
b 166 198 189 187 196 199 92 133 143 1 4 7 10 110 180 226 230 238 247 248 250 255 262 265 272 279 281 286 295 299
b 167 178 174 170 1 4 7 10 50 54 110 150 159 171 180 226 230 238 247 248 250 255 262 265 272 279 281 286 295 299
b 168 189 187 196 199 200 92 133 143 1 4 7 10 110 180 226 230 238 247 248 250 255 262 265 272 279 281 286 295 299
b 169 92 133 143 217 212 1 4 7 10 110 180 226 230 238 247 248 250 255 262 265 272 279 281 286 295 299
b 170 177 174 1 4 7 10 50 54 110 150 159 168 171 180 226 230 238 247 248 250 255 262 265 272 279 281 286 295 299
b 171 217 212 170 1 4 7 10 50 54 110 150 152 159 180 226 230 238 247 248 250 255 262 265 272 279 281 286 295 299
b 172 174 170 1 4 7 10 50 54 110 150 159 168 171 180 226 230 238 247 248 250 255 262 265 272 279 281 286 295 299
b 173 170 1 4 7 10 50 54 110 150 152 159 168 171 180 226 230 238 247 248 250 255 262 265 272 279 281 286 295 299
1 6
6 7
7 3
3 4
4 5
5 8
8 12
12 13
12 14
13 15
15 16
15 17
15 20
20 21
20 24
24 30
24 31
24 49
49 57
57 58
57 59
24 60
60 61
61 69
69 112
112 96
112 115
115 116
116 117
117 118
118 119
119 136
136 160
160 162
162 153
153 171
171 173
173 159
173 161
173 172
172 158
172 167
172 170
167 165
165 163
163 144
163 155
153 145
145 143
145 146
146 147
146 149
149 151
153 132
162 121
162 169
169 164
164 166
166 168
164 137
137 141
166 133
171 122
122 120
132 109
160 107
160 125
160 103
160 131
160 104
160 134
160 102
162 129
120 105
162 94
162 114
114 113
162 123
123 124
124 127
123 138
138 140
140 139
138 135
113 101
101 95
95 93
136 130
130 128
128 126
160 87
160 88
162 84
162 83
162 90
162 86
162 106
106 108
106 111
111 110
106 148
148 150
150 152
152 154
154 156
156 157
157 142
107 79
107 80
107 82
107 77
107 85
85 78
79 76
85 92
92 81
136 75
136 74
162 100
74 73
73 71
100 99
99 98
98 97
99 91
91 89
99 72
112 67
99 70
99 62
69 39
39 37
39 38
39 54
162 34
69 53
53 55
55 56
55 64
55 65
65 63
65 66
66 68
59 52
69 44
44 43
61 26
61 25
61 35
61 33
67 29
34 32
52 51
51 50
50 48
48 45
48 40
26 36
29 27
50 28
136 19
136 18
162 23
105 42
42 47
47 46
46 41
46 22
22 11
11 10
10 9
148 2
